(set-logic QF_BV)

(declare-const __ESBMC_ptr_obj_start_0 (_ BitVec 64))

(declare-const __ESBMC_ptr_obj_end_0 (_ BitVec 64))

(declare-const __ESBMC_ptr_obj_start_1 (_ BitVec 64))

(declare-const __ESBMC_ptr_obj_end_1 (_ BitVec 64))

(declare-const |smt_conv::__ESBMC_ptr_addr_range_0..start0| (_ BitVec 64))

(declare-const |smt_conv::__ESBMC_ptr_addr_range_0..end0| (_ BitVec 64))

(declare-const |smt_conv::__ESBMC_ptr_addr_range_1..start0| (_ BitVec 64))

(declare-const |smt_conv::__ESBMC_ptr_addr_range_1..end0| (_ BitVec 64))

(declare-const |smt_conv::smt_conv::collate_array_vals::3..start0| (_ BitVec 64))

(declare-const |smt_conv::smt_conv::collate_array_vals::3..end0| (_ BitVec 64))

(declare-const |smt_conv::smt_conv::collate_array_vals::4..start0| (_ BitVec 64))

(declare-const |smt_conv::smt_conv::collate_array_vals::4..end0| (_ BitVec 64))

(declare-const |smt_conv::smt_conv::collate_array_vals::7..start0| (_ BitVec 64))

(declare-const |smt_conv::smt_conv::collate_array_vals::7..end0| (_ BitVec 64))

(declare-const |c:@F@main::$tmp::return_value$___VERIFIER_nondet_int$1?1!0&0#1| (_ BitVec 32))

(declare-const |nondet$symex::nondet239| (_ BitVec 32))

(declare-const |c:cohencu4-both-t.c@877@F@main@k?1!0&0#1| (_ BitVec 32))

(declare-const |goto_symex::guard?0!0&0#1| (_ BitVec 1))

(declare-const |goto_symex::guard?0!0&0#2| (_ BitVec 1))

(declare-const |goto_symex::guard?0!0&0#3| (_ BitVec 1))

(declare-const |goto_symex::guard?0!0&0#4| (_ BitVec 1))

(declare-const |goto_symex::guard?0!0&0#5| (_ BitVec 1))

(declare-const |goto_symex::guard?0!0&0#6| (_ BitVec 1))

(declare-const |goto_symex::guard?0!0&0#7| (_ BitVec 1))

(declare-const |goto_symex::guard?0!0&0#8| (_ BitVec 1))

(declare-const |goto_symex::guard?0!0&0#9| (_ BitVec 1))

(declare-const |goto_symex::guard?0!0&0#10| (_ BitVec 1))

(declare-const |goto_symex::guard?0!0&0#11| (_ BitVec 1))

(declare-const |goto_symex::guard?0!0&0#12| (_ BitVec 1))

(declare-const |goto_symex::guard?0!0&0#13| (_ BitVec 1))

(declare-const |goto_symex::guard?0!0&0#14| (_ BitVec 1))

(declare-const |goto_symex::guard?0!0&0#15| (_ BitVec 1))

(declare-const |goto_symex::guard?0!0&0#16| (_ BitVec 1))

(declare-const |goto_symex::guard?0!0&0#17| (_ BitVec 1))

(declare-const |goto_symex::guard?0!0&0#18| (_ BitVec 1))

(declare-const |goto_symex::guard?0!0&0#19| (_ BitVec 1))

(declare-const |goto_symex::guard?0!0&0#20| (_ BitVec 1))

(declare-const |goto_symex::guard?0!0&0#21| (_ BitVec 1))

(declare-const |goto_symex::guard?0!0&0#22| (_ BitVec 1))

(declare-const |goto_symex::guard?0!0&0#23| (_ BitVec 1))

(declare-const |goto_symex::guard?0!0&0#24| (_ BitVec 1))

(declare-const |goto_symex::guard?0!0&0#25| (_ BitVec 1))

(declare-const |goto_symex::guard?0!0&0#26| (_ BitVec 1))

(declare-const |goto_symex::guard?0!0&0#27| (_ BitVec 1))

(declare-const |goto_symex::guard?0!0&0#28| (_ BitVec 1))

(declare-const |goto_symex::guard?0!0&0#29| (_ BitVec 1))

(declare-const |goto_symex::guard?0!0&0#30| (_ BitVec 1))

(declare-const |goto_symex::guard?0!0&0#31| (_ BitVec 1))

(declare-const |goto_symex::guard?0!0&0#32| (_ BitVec 1))

(declare-const |goto_symex::guard?0!0&0#33| (_ BitVec 1))

(declare-const |goto_symex::guard?0!0&0#34| (_ BitVec 1))

(declare-const |goto_symex::guard?0!0&0#35| (_ BitVec 1))

(declare-const |goto_symex::guard?0!0&0#36| (_ BitVec 1))

(declare-const |goto_symex::guard?0!0&0#37| (_ BitVec 1))

(declare-const |goto_symex::guard?0!0&0#38| (_ BitVec 1))

(declare-const |goto_symex::guard?0!0&0#39| (_ BitVec 1))

(declare-const |goto_symex::guard?0!0&0#40| (_ BitVec 1))

(declare-const |goto_symex::guard?0!0&0#41| (_ BitVec 1))

(declare-const |goto_symex::guard?0!0&0#42| (_ BitVec 1))

(declare-const |goto_symex::guard?0!0&0#43| (_ BitVec 1))

(declare-const |goto_symex::guard?0!0&0#44| (_ BitVec 1))

(declare-const |goto_symex::guard?0!0&0#45| (_ BitVec 1))

(declare-const |goto_symex::guard?0!0&0#46| (_ BitVec 1))

(declare-const |goto_symex::guard?0!0&0#47| (_ BitVec 1))

(declare-const |goto_symex::guard?0!0&0#48| (_ BitVec 1))

(declare-const |goto_symex::guard?0!0&0#49| (_ BitVec 1))

(declare-const |goto_symex::guard?0!0&0#50| (_ BitVec 1))

(declare-const |goto_symex::guard?0!0&0#51| (_ BitVec 1))

(declare-const |goto_symex::guard?0!0&0#52| (_ BitVec 1))

(declare-const |goto_symex::guard?0!0&0#53| (_ BitVec 1))

(declare-const |goto_symex::guard?0!0&0#54| (_ BitVec 1))

(declare-const |goto_symex::guard?0!0&0#55| (_ BitVec 1))

(declare-const |goto_symex::guard?0!0&0#56| (_ BitVec 1))

(declare-const |goto_symex::guard?0!0&0#57| (_ BitVec 1))

(declare-const |goto_symex::guard?0!0&0#58| (_ BitVec 1))

(declare-const |goto_symex::guard?0!0&0#59| (_ BitVec 1))

(declare-const |goto_symex::guard?0!0&0#60| (_ BitVec 1))

(declare-const |goto_symex::guard?0!0&0#61| (_ BitVec 1))

(declare-const |goto_symex::guard?0!0&0#62| (_ BitVec 1))

(declare-const |goto_symex::guard?0!0&0#63| (_ BitVec 1))

(declare-const |goto_symex::guard?0!0&0#64| (_ BitVec 1))

(declare-const |goto_symex::guard?0!0&0#65| (_ BitVec 1))

(declare-const |goto_symex::guard?0!0&0#66| (_ BitVec 1))

(declare-const |goto_symex::guard?0!0&0#67| (_ BitVec 1))

(declare-const |goto_symex::guard?0!0&0#68| (_ BitVec 1))

(declare-const |goto_symex::guard?0!0&0#69| (_ BitVec 1))

(declare-const |goto_symex::guard?0!0&0#70| (_ BitVec 1))

(declare-const |goto_symex::guard?0!0&0#71| (_ BitVec 1))

(declare-const |goto_symex::guard?0!0&0#72| (_ BitVec 1))

(declare-const |goto_symex::guard?0!0&0#73| (_ BitVec 1))

(declare-const |goto_symex::guard?0!0&0#74| (_ BitVec 1))

(declare-const |goto_symex::guard?0!0&0#75| (_ BitVec 1))

(declare-const |goto_symex::guard?0!0&0#76| (_ BitVec 1))

(declare-const |goto_symex::guard?0!0&0#77| (_ BitVec 1))

(declare-const |goto_symex::guard?0!0&0#78| (_ BitVec 1))

(declare-const |goto_symex::guard?0!0&0#79| (_ BitVec 1))

(declare-const |goto_symex::guard?0!0&0#80| (_ BitVec 1))

(declare-const |goto_symex::guard?0!0&0#81| (_ BitVec 1))

(declare-const |goto_symex::guard?0!0&0#82| (_ BitVec 1))

(declare-const |goto_symex::guard?0!0&0#83| (_ BitVec 1))

(declare-const |goto_symex::guard?0!0&0#84| (_ BitVec 1))

(declare-const |goto_symex::guard?0!0&0#85| (_ BitVec 1))

(declare-const |goto_symex::guard?0!0&0#86| (_ BitVec 1))

(declare-const |goto_symex::guard?0!0&0#87| (_ BitVec 1))

(declare-const |goto_symex::guard?0!0&0#88| (_ BitVec 1))

(declare-const |goto_symex::guard?0!0&0#89| (_ BitVec 1))

(declare-const |goto_symex::guard?0!0&0#90| (_ BitVec 1))

(declare-const |goto_symex::guard?0!0&0#91| (_ BitVec 1))

(declare-const |goto_symex::guard?0!0&0#92| (_ BitVec 1))

(declare-const |goto_symex::guard?0!0&0#93| (_ BitVec 1))

(declare-const |goto_symex::guard?0!0&0#94| (_ BitVec 1))

(declare-const |goto_symex::guard?0!0&0#95| (_ BitVec 1))

(declare-const |goto_symex::guard?0!0&0#96| (_ BitVec 1))

(declare-const |goto_symex::guard?0!0&0#97| (_ BitVec 1))

(declare-const |goto_symex::guard?0!0&0#98| (_ BitVec 1))

(declare-const |goto_symex::guard?0!0&0#99| (_ BitVec 1))

(declare-const |goto_symex::guard?0!0&0#100| (_ BitVec 1))

(declare-const |goto_symex::guard?0!0&0#101| (_ BitVec 1))

(declare-const |goto_symex::guard?0!0&0#102| (_ BitVec 1))

(declare-const |goto_symex::guard?0!0&0#103| (_ BitVec 1))

(declare-const |goto_symex::guard?0!0&0#104| (_ BitVec 1))

(declare-const |goto_symex::guard?0!0&0#105| (_ BitVec 1))

(declare-const |goto_symex::guard?0!0&0#106| (_ BitVec 1))

(declare-const |goto_symex::guard?0!0&0#107| (_ BitVec 1))

(declare-const |goto_symex::guard?0!0&0#108| (_ BitVec 1))

(declare-const |goto_symex::guard?0!0&0#109| (_ BitVec 1))

(declare-const |goto_symex::guard?0!0&0#110| (_ BitVec 1))

(declare-const |goto_symex::guard?0!0&0#111| (_ BitVec 1))

(declare-const |goto_symex::guard?0!0&0#112| (_ BitVec 1))

(declare-const |goto_symex::guard?0!0&0#113| (_ BitVec 1))

(declare-const |goto_symex::guard?0!0&0#114| (_ BitVec 1))

(declare-const |goto_symex::guard?0!0&0#115| (_ BitVec 1))

(declare-const |goto_symex::guard?0!0&0#116| (_ BitVec 1))

(declare-const |goto_symex::guard?0!0&0#117| (_ BitVec 1))

(declare-const |goto_symex::guard?0!0&0#118| (_ BitVec 1))

(declare-const |goto_symex::guard?0!0&0#119| (_ BitVec 1))

(declare-const |goto_symex::guard?0!0&0#120| (_ BitVec 1))

(declare-const |execution_statet::guard_exec?0!0| (_ BitVec 1))

(assert 

 (= __ESBMC_ptr_obj_start_0 #b0000000000000000000000000000000000000000000000000000000000000000))

(assert 

 (= #b0000000000000000000000000000000000000000000000000000000000000000 __ESBMC_ptr_obj_end_0))

(assert 

 (= __ESBMC_ptr_obj_start_1 #b0000000000000000000000000000000000000000000000000000000000000001))

(assert 

 (= #b1111111111111111111111111111111111111111111111111111111111111111 __ESBMC_ptr_obj_end_1))

(assert 

 (= __ESBMC_ptr_obj_end_0 |smt_conv::__ESBMC_ptr_addr_range_0..end0|))

(assert 

 (= __ESBMC_ptr_obj_start_0 |smt_conv::__ESBMC_ptr_addr_range_0..start0|))

(assert 

 (= __ESBMC_ptr_obj_end_1 |smt_conv::__ESBMC_ptr_addr_range_1..end0|))

(assert 

 (= __ESBMC_ptr_obj_start_1 |smt_conv::__ESBMC_ptr_addr_range_1..start0|))

(assert 

 (= |smt_conv::smt_conv::collate_array_vals::3..end0| |smt_conv::smt_conv::collate_array_vals::4..end0|))

(assert 

 (= |smt_conv::smt_conv::collate_array_vals::3..start0| |smt_conv::smt_conv::collate_array_vals::4..start0|))

(assert 

 (= __ESBMC_ptr_obj_end_0 |smt_conv::smt_conv::collate_array_vals::7..end0|))

(assert 

 (= __ESBMC_ptr_obj_start_0 |smt_conv::smt_conv::collate_array_vals::7..start0|))

(assert 

 (= |c:@F@main::$tmp::return_value$___VERIFIER_nondet_int$1?1!0&0#1| |nondet$symex::nondet239|))

(assert 

 (= |c:@F@main::$tmp::return_value$___VERIFIER_nondet_int$1?1!0&0#1| |c:cohencu4-both-t.c@877@F@main@k?1!0&0#1|))

(assert 

 (= |goto_symex::guard?0!0&0#1| 

  (bvnot 

   (ite 

    (bvslt |c:cohencu4-both-t.c@877@F@main@k?1!0&0#1| #b00000000000000000000000000000000) #b1 #b0))))

(assert 

 (= |goto_symex::guard?0!0&0#2| 

  (bvnot 

   (ite 

    (bvslt |c:cohencu4-both-t.c@877@F@main@k?1!0&0#1| #b00000000000000000000000000000001) #b1 #b0))))

(assert 

 (= |goto_symex::guard?0!0&0#3| 

  (bvnot 

   (ite 

    (bvslt |c:cohencu4-both-t.c@877@F@main@k?1!0&0#1| #b00000000000000000000000000000010) #b1 #b0))))

(assert 

 (= |goto_symex::guard?0!0&0#4| 

  (bvnot 

   (ite 

    (bvslt |c:cohencu4-both-t.c@877@F@main@k?1!0&0#1| #b00000000000000000000000000000011) #b1 #b0))))

(assert 

 (= |goto_symex::guard?0!0&0#5| 

  (bvnot 

   (ite 

    (bvslt |c:cohencu4-both-t.c@877@F@main@k?1!0&0#1| #b00000000000000000000000000000100) #b1 #b0))))

(assert 

 (= |goto_symex::guard?0!0&0#6| 

  (bvnot 

   (ite 

    (bvslt |c:cohencu4-both-t.c@877@F@main@k?1!0&0#1| #b00000000000000000000000000000101) #b1 #b0))))

(assert 

 (= |goto_symex::guard?0!0&0#7| 

  (bvnot 

   (ite 

    (bvslt |c:cohencu4-both-t.c@877@F@main@k?1!0&0#1| #b00000000000000000000000000000110) #b1 #b0))))

(assert 

 (= |goto_symex::guard?0!0&0#8| 

  (bvnot 

   (ite 

    (bvslt |c:cohencu4-both-t.c@877@F@main@k?1!0&0#1| #b00000000000000000000000000000111) #b1 #b0))))

(assert 

 (= |goto_symex::guard?0!0&0#9| 

  (bvnot 

   (ite 

    (bvslt |c:cohencu4-both-t.c@877@F@main@k?1!0&0#1| #b00000000000000000000000000001000) #b1 #b0))))

(assert 

 (= |goto_symex::guard?0!0&0#10| 

  (bvnot 

   (ite 

    (bvslt |c:cohencu4-both-t.c@877@F@main@k?1!0&0#1| #b00000000000000000000000000001001) #b1 #b0))))

(assert 

 (= |goto_symex::guard?0!0&0#11| 

  (bvnot 

   (ite 

    (bvslt |c:cohencu4-both-t.c@877@F@main@k?1!0&0#1| #b00000000000000000000000000001010) #b1 #b0))))

(assert 

 (= |goto_symex::guard?0!0&0#12| 

  (bvnot 

   (ite 

    (bvslt |c:cohencu4-both-t.c@877@F@main@k?1!0&0#1| #b00000000000000000000000000001011) #b1 #b0))))

(assert 

 (= |goto_symex::guard?0!0&0#13| 

  (bvnot 

   (ite 

    (bvslt |c:cohencu4-both-t.c@877@F@main@k?1!0&0#1| #b00000000000000000000000000001100) #b1 #b0))))

(assert 

 (= |goto_symex::guard?0!0&0#14| 

  (bvnot 

   (ite 

    (bvslt |c:cohencu4-both-t.c@877@F@main@k?1!0&0#1| #b00000000000000000000000000001101) #b1 #b0))))

(assert 

 (= |goto_symex::guard?0!0&0#15| 

  (bvnot 

   (ite 

    (bvslt |c:cohencu4-both-t.c@877@F@main@k?1!0&0#1| #b00000000000000000000000000001110) #b1 #b0))))

(assert 

 (= |goto_symex::guard?0!0&0#16| 

  (bvnot 

   (ite 

    (bvslt |c:cohencu4-both-t.c@877@F@main@k?1!0&0#1| #b00000000000000000000000000001111) #b1 #b0))))

(assert 

 (= |goto_symex::guard?0!0&0#17| 

  (bvnot 

   (ite 

    (bvslt |c:cohencu4-both-t.c@877@F@main@k?1!0&0#1| #b00000000000000000000000000010000) #b1 #b0))))

(assert 

 (= |goto_symex::guard?0!0&0#18| 

  (bvnot 

   (ite 

    (bvslt |c:cohencu4-both-t.c@877@F@main@k?1!0&0#1| #b00000000000000000000000000010001) #b1 #b0))))

(assert 

 (= |goto_symex::guard?0!0&0#19| 

  (bvnot 

   (ite 

    (bvslt |c:cohencu4-both-t.c@877@F@main@k?1!0&0#1| #b00000000000000000000000000010010) #b1 #b0))))

(assert 

 (= |goto_symex::guard?0!0&0#20| 

  (bvnot 

   (ite 

    (bvslt |c:cohencu4-both-t.c@877@F@main@k?1!0&0#1| #b00000000000000000000000000010011) #b1 #b0))))

(assert 

 (= |goto_symex::guard?0!0&0#21| 

  (bvnot 

   (ite 

    (bvslt |c:cohencu4-both-t.c@877@F@main@k?1!0&0#1| #b00000000000000000000000000010100) #b1 #b0))))

(assert 

 (= |goto_symex::guard?0!0&0#22| 

  (bvnot 

   (ite 

    (bvslt |c:cohencu4-both-t.c@877@F@main@k?1!0&0#1| #b00000000000000000000000000010101) #b1 #b0))))

(assert 

 (= |goto_symex::guard?0!0&0#23| 

  (bvnot 

   (ite 

    (bvslt |c:cohencu4-both-t.c@877@F@main@k?1!0&0#1| #b00000000000000000000000000010110) #b1 #b0))))

(assert 

 (= |goto_symex::guard?0!0&0#24| 

  (bvnot 

   (ite 

    (bvslt |c:cohencu4-both-t.c@877@F@main@k?1!0&0#1| #b00000000000000000000000000010111) #b1 #b0))))

(assert 

 (= |goto_symex::guard?0!0&0#25| 

  (bvnot 

   (ite 

    (bvslt |c:cohencu4-both-t.c@877@F@main@k?1!0&0#1| #b00000000000000000000000000011000) #b1 #b0))))

(assert 

 (= |goto_symex::guard?0!0&0#26| 

  (bvnot 

   (ite 

    (bvslt |c:cohencu4-both-t.c@877@F@main@k?1!0&0#1| #b00000000000000000000000000011001) #b1 #b0))))

(assert 

 (= |goto_symex::guard?0!0&0#27| 

  (bvnot 

   (ite 

    (bvslt |c:cohencu4-both-t.c@877@F@main@k?1!0&0#1| #b00000000000000000000000000011010) #b1 #b0))))

(assert 

 (= |goto_symex::guard?0!0&0#28| 

  (bvnot 

   (ite 

    (bvslt |c:cohencu4-both-t.c@877@F@main@k?1!0&0#1| #b00000000000000000000000000011011) #b1 #b0))))

(assert 

 (= |goto_symex::guard?0!0&0#29| 

  (bvnot 

   (ite 

    (bvslt |c:cohencu4-both-t.c@877@F@main@k?1!0&0#1| #b00000000000000000000000000011100) #b1 #b0))))

(assert 

 (= |goto_symex::guard?0!0&0#30| 

  (bvnot 

   (ite 

    (bvslt |c:cohencu4-both-t.c@877@F@main@k?1!0&0#1| #b00000000000000000000000000011101) #b1 #b0))))

(assert 

 (= |goto_symex::guard?0!0&0#31| 

  (bvnot 

   (ite 

    (bvslt |c:cohencu4-both-t.c@877@F@main@k?1!0&0#1| #b00000000000000000000000000011110) #b1 #b0))))

(assert 

 (= |goto_symex::guard?0!0&0#32| 

  (bvnot 

   (ite 

    (bvslt |c:cohencu4-both-t.c@877@F@main@k?1!0&0#1| #b00000000000000000000000000011111) #b1 #b0))))

(assert 

 (= |goto_symex::guard?0!0&0#33| 

  (bvnot 

   (ite 

    (bvslt |c:cohencu4-both-t.c@877@F@main@k?1!0&0#1| #b00000000000000000000000000100000) #b1 #b0))))

(assert 

 (= |goto_symex::guard?0!0&0#34| 

  (bvnot 

   (ite 

    (bvslt |c:cohencu4-both-t.c@877@F@main@k?1!0&0#1| #b00000000000000000000000000100001) #b1 #b0))))

(assert 

 (= |goto_symex::guard?0!0&0#35| 

  (bvnot 

   (ite 

    (bvslt |c:cohencu4-both-t.c@877@F@main@k?1!0&0#1| #b00000000000000000000000000100010) #b1 #b0))))

(assert 

 (= |goto_symex::guard?0!0&0#36| 

  (bvnot 

   (ite 

    (bvslt |c:cohencu4-both-t.c@877@F@main@k?1!0&0#1| #b00000000000000000000000000100011) #b1 #b0))))

(assert 

 (= |goto_symex::guard?0!0&0#37| 

  (bvnot 

   (ite 

    (bvslt |c:cohencu4-both-t.c@877@F@main@k?1!0&0#1| #b00000000000000000000000000100100) #b1 #b0))))

(assert 

 (= |goto_symex::guard?0!0&0#38| 

  (bvnot 

   (ite 

    (bvslt |c:cohencu4-both-t.c@877@F@main@k?1!0&0#1| #b00000000000000000000000000100101) #b1 #b0))))

(assert 

 (= |goto_symex::guard?0!0&0#39| 

  (bvnot 

   (ite 

    (bvslt |c:cohencu4-both-t.c@877@F@main@k?1!0&0#1| #b00000000000000000000000000100110) #b1 #b0))))

(assert 

 (= |goto_symex::guard?0!0&0#40| 

  (bvnot 

   (ite 

    (bvslt |c:cohencu4-both-t.c@877@F@main@k?1!0&0#1| #b00000000000000000000000000100111) #b1 #b0))))

(assert 

 (= |goto_symex::guard?0!0&0#41| 

  (bvnot 

   (ite 

    (bvslt |c:cohencu4-both-t.c@877@F@main@k?1!0&0#1| #b00000000000000000000000000101000) #b1 #b0))))

(assert 

 (= |goto_symex::guard?0!0&0#42| 

  (bvnot 

   (ite 

    (bvslt |c:cohencu4-both-t.c@877@F@main@k?1!0&0#1| #b00000000000000000000000000101001) #b1 #b0))))

(assert 

 (= |goto_symex::guard?0!0&0#43| 

  (bvnot 

   (ite 

    (bvslt |c:cohencu4-both-t.c@877@F@main@k?1!0&0#1| #b00000000000000000000000000101010) #b1 #b0))))

(assert 

 (= |goto_symex::guard?0!0&0#44| 

  (bvnot 

   (ite 

    (bvslt |c:cohencu4-both-t.c@877@F@main@k?1!0&0#1| #b00000000000000000000000000101011) #b1 #b0))))

(assert 

 (= |goto_symex::guard?0!0&0#45| 

  (bvnot 

   (ite 

    (bvslt |c:cohencu4-both-t.c@877@F@main@k?1!0&0#1| #b00000000000000000000000000101100) #b1 #b0))))

(assert 

 (= |goto_symex::guard?0!0&0#46| 

  (bvnot 

   (ite 

    (bvslt |c:cohencu4-both-t.c@877@F@main@k?1!0&0#1| #b00000000000000000000000000101101) #b1 #b0))))

(assert 

 (= |goto_symex::guard?0!0&0#47| 

  (bvnot 

   (ite 

    (bvslt |c:cohencu4-both-t.c@877@F@main@k?1!0&0#1| #b00000000000000000000000000101110) #b1 #b0))))

(assert 

 (= |goto_symex::guard?0!0&0#48| 

  (bvnot 

   (ite 

    (bvslt |c:cohencu4-both-t.c@877@F@main@k?1!0&0#1| #b00000000000000000000000000101111) #b1 #b0))))

(assert 

 (= |goto_symex::guard?0!0&0#49| 

  (bvnot 

   (ite 

    (bvslt |c:cohencu4-both-t.c@877@F@main@k?1!0&0#1| #b00000000000000000000000000110000) #b1 #b0))))

(assert 

 (= |goto_symex::guard?0!0&0#50| 

  (bvnot 

   (ite 

    (bvslt |c:cohencu4-both-t.c@877@F@main@k?1!0&0#1| #b00000000000000000000000000110001) #b1 #b0))))

(assert 

 (= |goto_symex::guard?0!0&0#51| 

  (bvnot 

   (ite 

    (bvslt |c:cohencu4-both-t.c@877@F@main@k?1!0&0#1| #b00000000000000000000000000110010) #b1 #b0))))

(assert 

 (= |goto_symex::guard?0!0&0#52| 

  (bvnot 

   (ite 

    (bvslt |c:cohencu4-both-t.c@877@F@main@k?1!0&0#1| #b00000000000000000000000000110011) #b1 #b0))))

(assert 

 (= |goto_symex::guard?0!0&0#53| 

  (bvnot 

   (ite 

    (bvslt |c:cohencu4-both-t.c@877@F@main@k?1!0&0#1| #b00000000000000000000000000110100) #b1 #b0))))

(assert 

 (= |goto_symex::guard?0!0&0#54| 

  (bvnot 

   (ite 

    (bvslt |c:cohencu4-both-t.c@877@F@main@k?1!0&0#1| #b00000000000000000000000000110101) #b1 #b0))))

(assert 

 (= |goto_symex::guard?0!0&0#55| 

  (bvnot 

   (ite 

    (bvslt |c:cohencu4-both-t.c@877@F@main@k?1!0&0#1| #b00000000000000000000000000110110) #b1 #b0))))

(assert 

 (= |goto_symex::guard?0!0&0#56| 

  (bvnot 

   (ite 

    (bvslt |c:cohencu4-both-t.c@877@F@main@k?1!0&0#1| #b00000000000000000000000000110111) #b1 #b0))))

(assert 

 (= |goto_symex::guard?0!0&0#57| 

  (bvnot 

   (ite 

    (bvslt |c:cohencu4-both-t.c@877@F@main@k?1!0&0#1| #b00000000000000000000000000111000) #b1 #b0))))

(assert 

 (= |goto_symex::guard?0!0&0#58| 

  (bvnot 

   (ite 

    (bvslt |c:cohencu4-both-t.c@877@F@main@k?1!0&0#1| #b00000000000000000000000000111001) #b1 #b0))))

(assert 

 (= |goto_symex::guard?0!0&0#59| 

  (bvnot 

   (ite 

    (bvslt |c:cohencu4-both-t.c@877@F@main@k?1!0&0#1| #b00000000000000000000000000111010) #b1 #b0))))

(assert 

 (= |goto_symex::guard?0!0&0#60| 

  (bvnot 

   (ite 

    (bvslt |c:cohencu4-both-t.c@877@F@main@k?1!0&0#1| #b00000000000000000000000000111011) #b1 #b0))))

(assert 

 (= |goto_symex::guard?0!0&0#61| 

  (bvnot 

   (ite 

    (bvslt |c:cohencu4-both-t.c@877@F@main@k?1!0&0#1| #b00000000000000000000000000111100) #b1 #b0))))

(assert 

 (= |goto_symex::guard?0!0&0#62| 

  (bvnot 

   (ite 

    (bvslt |c:cohencu4-both-t.c@877@F@main@k?1!0&0#1| #b00000000000000000000000000111101) #b1 #b0))))

(assert 

 (= |goto_symex::guard?0!0&0#63| 

  (bvnot 

   (ite 

    (bvslt |c:cohencu4-both-t.c@877@F@main@k?1!0&0#1| #b00000000000000000000000000111110) #b1 #b0))))

(assert 

 (= |goto_symex::guard?0!0&0#64| 

  (bvnot 

   (ite 

    (bvslt |c:cohencu4-both-t.c@877@F@main@k?1!0&0#1| #b00000000000000000000000000111111) #b1 #b0))))

(assert 

 (= |goto_symex::guard?0!0&0#65| 

  (bvnot 

   (ite 

    (bvslt |c:cohencu4-both-t.c@877@F@main@k?1!0&0#1| #b00000000000000000000000001000000) #b1 #b0))))

(assert 

 (= |goto_symex::guard?0!0&0#66| 

  (bvnot 

   (ite 

    (bvslt |c:cohencu4-both-t.c@877@F@main@k?1!0&0#1| #b00000000000000000000000001000001) #b1 #b0))))

(assert 

 (= |goto_symex::guard?0!0&0#67| 

  (bvnot 

   (ite 

    (bvslt |c:cohencu4-both-t.c@877@F@main@k?1!0&0#1| #b00000000000000000000000001000010) #b1 #b0))))

(assert 

 (= |goto_symex::guard?0!0&0#68| 

  (bvnot 

   (ite 

    (bvslt |c:cohencu4-both-t.c@877@F@main@k?1!0&0#1| #b00000000000000000000000001000011) #b1 #b0))))

(assert 

 (= |goto_symex::guard?0!0&0#69| 

  (bvnot 

   (ite 

    (bvslt |c:cohencu4-both-t.c@877@F@main@k?1!0&0#1| #b00000000000000000000000001000100) #b1 #b0))))

(assert 

 (= |goto_symex::guard?0!0&0#70| 

  (bvnot 

   (ite 

    (bvslt |c:cohencu4-both-t.c@877@F@main@k?1!0&0#1| #b00000000000000000000000001000101) #b1 #b0))))

(assert 

 (= |goto_symex::guard?0!0&0#71| 

  (bvnot 

   (ite 

    (bvslt |c:cohencu4-both-t.c@877@F@main@k?1!0&0#1| #b00000000000000000000000001000110) #b1 #b0))))

(assert 

 (= |goto_symex::guard?0!0&0#72| 

  (bvnot 

   (ite 

    (bvslt |c:cohencu4-both-t.c@877@F@main@k?1!0&0#1| #b00000000000000000000000001000111) #b1 #b0))))

(assert 

 (= |goto_symex::guard?0!0&0#73| 

  (bvnot 

   (ite 

    (bvslt |c:cohencu4-both-t.c@877@F@main@k?1!0&0#1| #b00000000000000000000000001001000) #b1 #b0))))

(assert 

 (= |goto_symex::guard?0!0&0#74| 

  (bvnot 

   (ite 

    (bvslt |c:cohencu4-both-t.c@877@F@main@k?1!0&0#1| #b00000000000000000000000001001001) #b1 #b0))))

(assert 

 (= |goto_symex::guard?0!0&0#75| 

  (bvnot 

   (ite 

    (bvslt |c:cohencu4-both-t.c@877@F@main@k?1!0&0#1| #b00000000000000000000000001001010) #b1 #b0))))

(assert 

 (= |goto_symex::guard?0!0&0#76| 

  (bvnot 

   (ite 

    (bvslt |c:cohencu4-both-t.c@877@F@main@k?1!0&0#1| #b00000000000000000000000001001011) #b1 #b0))))

(assert 

 (= |goto_symex::guard?0!0&0#77| 

  (bvnot 

   (ite 

    (bvslt |c:cohencu4-both-t.c@877@F@main@k?1!0&0#1| #b00000000000000000000000001001100) #b1 #b0))))

(assert 

 (= |goto_symex::guard?0!0&0#78| 

  (bvnot 

   (ite 

    (bvslt |c:cohencu4-both-t.c@877@F@main@k?1!0&0#1| #b00000000000000000000000001001101) #b1 #b0))))

(assert 

 (= |goto_symex::guard?0!0&0#79| 

  (bvnot 

   (ite 

    (bvslt |c:cohencu4-both-t.c@877@F@main@k?1!0&0#1| #b00000000000000000000000001001110) #b1 #b0))))

(assert 

 (= |goto_symex::guard?0!0&0#80| 

  (bvnot 

   (ite 

    (bvslt |c:cohencu4-both-t.c@877@F@main@k?1!0&0#1| #b00000000000000000000000001001111) #b1 #b0))))

(assert 

 (= |goto_symex::guard?0!0&0#81| 

  (bvnot 

   (ite 

    (bvslt |c:cohencu4-both-t.c@877@F@main@k?1!0&0#1| #b00000000000000000000000001010000) #b1 #b0))))

(assert 

 (= |goto_symex::guard?0!0&0#82| 

  (bvnot 

   (ite 

    (bvslt |c:cohencu4-both-t.c@877@F@main@k?1!0&0#1| #b00000000000000000000000001010001) #b1 #b0))))

(assert 

 (= |goto_symex::guard?0!0&0#83| 

  (bvnot 

   (ite 

    (bvslt |c:cohencu4-both-t.c@877@F@main@k?1!0&0#1| #b00000000000000000000000001010010) #b1 #b0))))

(assert 

 (= |goto_symex::guard?0!0&0#84| 

  (bvnot 

   (ite 

    (bvslt |c:cohencu4-both-t.c@877@F@main@k?1!0&0#1| #b00000000000000000000000001010011) #b1 #b0))))

(assert 

 (= |goto_symex::guard?0!0&0#85| 

  (bvnot 

   (ite 

    (bvslt |c:cohencu4-both-t.c@877@F@main@k?1!0&0#1| #b00000000000000000000000001010100) #b1 #b0))))

(assert 

 (= |goto_symex::guard?0!0&0#86| 

  (bvnot 

   (ite 

    (bvslt |c:cohencu4-both-t.c@877@F@main@k?1!0&0#1| #b00000000000000000000000001010101) #b1 #b0))))

(assert 

 (= |goto_symex::guard?0!0&0#87| 

  (bvnot 

   (ite 

    (bvslt |c:cohencu4-both-t.c@877@F@main@k?1!0&0#1| #b00000000000000000000000001010110) #b1 #b0))))

(assert 

 (= |goto_symex::guard?0!0&0#88| 

  (bvnot 

   (ite 

    (bvslt |c:cohencu4-both-t.c@877@F@main@k?1!0&0#1| #b00000000000000000000000001010111) #b1 #b0))))

(assert 

 (= |goto_symex::guard?0!0&0#89| 

  (bvnot 

   (ite 

    (bvslt |c:cohencu4-both-t.c@877@F@main@k?1!0&0#1| #b00000000000000000000000001011000) #b1 #b0))))

(assert 

 (= |goto_symex::guard?0!0&0#90| 

  (bvnot 

   (ite 

    (bvslt |c:cohencu4-both-t.c@877@F@main@k?1!0&0#1| #b00000000000000000000000001011001) #b1 #b0))))

(assert 

 (= |goto_symex::guard?0!0&0#91| 

  (bvnot 

   (ite 

    (bvslt |c:cohencu4-both-t.c@877@F@main@k?1!0&0#1| #b00000000000000000000000001011010) #b1 #b0))))

(assert 

 (= |goto_symex::guard?0!0&0#92| 

  (bvnot 

   (ite 

    (bvslt |c:cohencu4-both-t.c@877@F@main@k?1!0&0#1| #b00000000000000000000000001011011) #b1 #b0))))

(assert 

 (= |goto_symex::guard?0!0&0#93| 

  (bvnot 

   (ite 

    (bvslt |c:cohencu4-both-t.c@877@F@main@k?1!0&0#1| #b00000000000000000000000001011100) #b1 #b0))))

(assert 

 (= |goto_symex::guard?0!0&0#94| 

  (bvnot 

   (ite 

    (bvslt |c:cohencu4-both-t.c@877@F@main@k?1!0&0#1| #b00000000000000000000000001011101) #b1 #b0))))

(assert 

 (= |goto_symex::guard?0!0&0#95| 

  (bvnot 

   (ite 

    (bvslt |c:cohencu4-both-t.c@877@F@main@k?1!0&0#1| #b00000000000000000000000001011110) #b1 #b0))))

(assert 

 (= |goto_symex::guard?0!0&0#96| 

  (bvnot 

   (ite 

    (bvslt |c:cohencu4-both-t.c@877@F@main@k?1!0&0#1| #b00000000000000000000000001011111) #b1 #b0))))

(assert 

 (= |goto_symex::guard?0!0&0#97| 

  (bvnot 

   (ite 

    (bvslt |c:cohencu4-both-t.c@877@F@main@k?1!0&0#1| #b00000000000000000000000001100000) #b1 #b0))))

(assert 

 (= |goto_symex::guard?0!0&0#98| 

  (bvnot 

   (ite 

    (bvslt |c:cohencu4-both-t.c@877@F@main@k?1!0&0#1| #b00000000000000000000000001100001) #b1 #b0))))

(assert 

 (= |goto_symex::guard?0!0&0#99| 

  (bvnot 

   (ite 

    (bvslt |c:cohencu4-both-t.c@877@F@main@k?1!0&0#1| #b00000000000000000000000001100010) #b1 #b0))))

(assert 

 (= |goto_symex::guard?0!0&0#100| 

  (bvnot 

   (ite 

    (bvslt |c:cohencu4-both-t.c@877@F@main@k?1!0&0#1| #b00000000000000000000000001100011) #b1 #b0))))

(assert 

 (= |goto_symex::guard?0!0&0#101| 

  (bvnot 

   (ite 

    (bvslt |c:cohencu4-both-t.c@877@F@main@k?1!0&0#1| #b00000000000000000000000001100100) #b1 #b0))))

(assert 

 (= |goto_symex::guard?0!0&0#102| 

  (bvnot 

   (ite 

    (bvslt |c:cohencu4-both-t.c@877@F@main@k?1!0&0#1| #b00000000000000000000000001100101) #b1 #b0))))

(assert 

 (= |goto_symex::guard?0!0&0#103| 

  (bvnot 

   (ite 

    (bvslt |c:cohencu4-both-t.c@877@F@main@k?1!0&0#1| #b00000000000000000000000001100110) #b1 #b0))))

(assert 

 (= |goto_symex::guard?0!0&0#104| 

  (bvnot 

   (ite 

    (bvslt |c:cohencu4-both-t.c@877@F@main@k?1!0&0#1| #b00000000000000000000000001100111) #b1 #b0))))

(assert 

 (= |goto_symex::guard?0!0&0#105| 

  (bvnot 

   (ite 

    (bvslt |c:cohencu4-both-t.c@877@F@main@k?1!0&0#1| #b00000000000000000000000001101000) #b1 #b0))))

(assert 

 (= |goto_symex::guard?0!0&0#106| 

  (bvnot 

   (ite 

    (bvslt |c:cohencu4-both-t.c@877@F@main@k?1!0&0#1| #b00000000000000000000000001101001) #b1 #b0))))

(assert 

 (= |goto_symex::guard?0!0&0#107| 

  (bvnot 

   (ite 

    (bvslt |c:cohencu4-both-t.c@877@F@main@k?1!0&0#1| #b00000000000000000000000001101010) #b1 #b0))))

(assert 

 (= |goto_symex::guard?0!0&0#108| 

  (bvnot 

   (ite 

    (bvslt |c:cohencu4-both-t.c@877@F@main@k?1!0&0#1| #b00000000000000000000000001101011) #b1 #b0))))

(assert 

 (= |goto_symex::guard?0!0&0#109| 

  (bvnot 

   (ite 

    (bvslt |c:cohencu4-both-t.c@877@F@main@k?1!0&0#1| #b00000000000000000000000001101100) #b1 #b0))))

(assert 

 (= |goto_symex::guard?0!0&0#110| 

  (bvnot 

   (ite 

    (bvslt |c:cohencu4-both-t.c@877@F@main@k?1!0&0#1| #b00000000000000000000000001101101) #b1 #b0))))

(assert 

 (= |goto_symex::guard?0!0&0#111| 

  (bvnot 

   (ite 

    (bvslt |c:cohencu4-both-t.c@877@F@main@k?1!0&0#1| #b00000000000000000000000001101110) #b1 #b0))))

(assert 

 (= |goto_symex::guard?0!0&0#112| 

  (bvnot 

   (ite 

    (bvslt |c:cohencu4-both-t.c@877@F@main@k?1!0&0#1| #b00000000000000000000000001101111) #b1 #b0))))

(assert 

 (= |goto_symex::guard?0!0&0#113| 

  (bvnot 

   (ite 

    (bvslt |c:cohencu4-both-t.c@877@F@main@k?1!0&0#1| #b00000000000000000000000001110000) #b1 #b0))))

(assert 

 (= |goto_symex::guard?0!0&0#114| 

  (bvnot 

   (ite 

    (bvslt |c:cohencu4-both-t.c@877@F@main@k?1!0&0#1| #b00000000000000000000000001110001) #b1 #b0))))

(assert 

 (= |goto_symex::guard?0!0&0#115| 

  (bvnot 

   (ite 

    (bvslt |c:cohencu4-both-t.c@877@F@main@k?1!0&0#1| #b00000000000000000000000001110010) #b1 #b0))))

(assert 

 (= |goto_symex::guard?0!0&0#116| 

  (bvnot 

   (ite 

    (bvslt |c:cohencu4-both-t.c@877@F@main@k?1!0&0#1| #b00000000000000000000000001110011) #b1 #b0))))

(assert 

 (= |goto_symex::guard?0!0&0#117| 

  (bvnot 

   (ite 

    (bvslt |c:cohencu4-both-t.c@877@F@main@k?1!0&0#1| #b00000000000000000000000001110100) #b1 #b0))))

(assert 

 (= |goto_symex::guard?0!0&0#118| 

  (bvnot 

   (ite 

    (bvslt |c:cohencu4-both-t.c@877@F@main@k?1!0&0#1| #b00000000000000000000000001110101) #b1 #b0))))

(assert 

 (= |goto_symex::guard?0!0&0#119| 

  (bvnot 

   (ite 

    (bvslt |c:cohencu4-both-t.c@877@F@main@k?1!0&0#1| #b00000000000000000000000001110110) #b1 #b0))))

(assert 

 (= |goto_symex::guard?0!0&0#120| 

  (bvnot 

   (ite 

    (bvslt |c:cohencu4-both-t.c@877@F@main@k?1!0&0#1| #b00000000000000000000000001110111) #b1 #b0))))

(assert (= |execution_statet::guard_exec?0!0| #b1))

(assert (= |goto_symex::guard?0!0&0#120| #b1))

(assert (= |goto_symex::guard?0!0&0#119| #b1))

(assert (= |goto_symex::guard?0!0&0#118| #b1))

(assert (= |goto_symex::guard?0!0&0#117| #b1))

(assert (= |goto_symex::guard?0!0&0#116| #b1))

(assert (= |goto_symex::guard?0!0&0#115| #b1))

(assert (= |goto_symex::guard?0!0&0#114| #b1))

(assert (= |goto_symex::guard?0!0&0#113| #b1))

(assert (= |goto_symex::guard?0!0&0#112| #b1))

(assert (= |goto_symex::guard?0!0&0#111| #b1))

(assert (= |goto_symex::guard?0!0&0#110| #b1))

(assert (= |goto_symex::guard?0!0&0#109| #b1))

(assert (= |goto_symex::guard?0!0&0#108| #b1))

(assert (= |goto_symex::guard?0!0&0#107| #b1))

(assert (= |goto_symex::guard?0!0&0#106| #b1))

(assert (= |goto_symex::guard?0!0&0#105| #b1))

(assert (= |goto_symex::guard?0!0&0#104| #b1))

(assert (= |goto_symex::guard?0!0&0#103| #b1))

(assert (= |goto_symex::guard?0!0&0#102| #b1))

(assert (= |goto_symex::guard?0!0&0#101| #b1))

(assert (= |goto_symex::guard?0!0&0#100| #b1))

(assert (= |goto_symex::guard?0!0&0#99| #b1))

(assert (= |goto_symex::guard?0!0&0#98| #b1))

(assert (= |goto_symex::guard?0!0&0#97| #b1))

(assert (= |goto_symex::guard?0!0&0#96| #b1))

(assert (= |goto_symex::guard?0!0&0#95| #b1))

(assert (= |goto_symex::guard?0!0&0#94| #b1))

(assert (= |goto_symex::guard?0!0&0#93| #b1))

(assert (= |goto_symex::guard?0!0&0#92| #b1))

(assert (= |goto_symex::guard?0!0&0#91| #b1))

(assert (= |goto_symex::guard?0!0&0#90| #b1))

(assert (= |goto_symex::guard?0!0&0#89| #b1))

(assert (= |goto_symex::guard?0!0&0#88| #b1))

(assert (= |goto_symex::guard?0!0&0#87| #b1))

(assert (= |goto_symex::guard?0!0&0#86| #b1))

(assert (= |goto_symex::guard?0!0&0#85| #b1))

(assert (= |goto_symex::guard?0!0&0#84| #b1))

(assert (= |goto_symex::guard?0!0&0#83| #b1))

(assert (= |goto_symex::guard?0!0&0#82| #b1))

(assert (= |goto_symex::guard?0!0&0#81| #b1))

(assert (= |goto_symex::guard?0!0&0#80| #b1))

(assert (= |goto_symex::guard?0!0&0#79| #b1))

(assert (= |goto_symex::guard?0!0&0#78| #b1))

(assert (= |goto_symex::guard?0!0&0#77| #b1))

(assert (= |goto_symex::guard?0!0&0#76| #b1))

(assert (= |goto_symex::guard?0!0&0#75| #b1))

(assert (= |goto_symex::guard?0!0&0#74| #b1))

(assert (= |goto_symex::guard?0!0&0#73| #b1))

(assert (= |goto_symex::guard?0!0&0#72| #b1))

(assert (= |goto_symex::guard?0!0&0#71| #b1))

(assert (= |goto_symex::guard?0!0&0#70| #b1))

(assert (= |goto_symex::guard?0!0&0#69| #b1))

(assert (= |goto_symex::guard?0!0&0#68| #b1))

(assert (= |goto_symex::guard?0!0&0#67| #b1))

(assert (= |goto_symex::guard?0!0&0#66| #b1))

(assert (= |goto_symex::guard?0!0&0#65| #b1))

(assert (= |goto_symex::guard?0!0&0#64| #b1))

(assert (= |goto_symex::guard?0!0&0#63| #b1))

(assert (= |goto_symex::guard?0!0&0#62| #b1))

(assert (= |goto_symex::guard?0!0&0#61| #b1))

(assert (= |goto_symex::guard?0!0&0#60| #b1))

(assert (= |goto_symex::guard?0!0&0#59| #b1))

(assert (= |goto_symex::guard?0!0&0#58| #b1))

(assert (= |goto_symex::guard?0!0&0#57| #b1))

(assert (= |goto_symex::guard?0!0&0#56| #b1))

(assert (= |goto_symex::guard?0!0&0#55| #b1))

(assert (= |goto_symex::guard?0!0&0#54| #b1))

(assert (= |goto_symex::guard?0!0&0#53| #b1))

(assert (= |goto_symex::guard?0!0&0#52| #b1))

(assert (= |goto_symex::guard?0!0&0#51| #b1))

(assert (= |goto_symex::guard?0!0&0#50| #b1))

(assert (= |goto_symex::guard?0!0&0#49| #b1))

(assert (= |goto_symex::guard?0!0&0#48| #b1))

(assert (= |goto_symex::guard?0!0&0#47| #b1))

(assert (= |goto_symex::guard?0!0&0#46| #b1))

(assert (= |goto_symex::guard?0!0&0#45| #b1))

(assert (= |goto_symex::guard?0!0&0#44| #b1))

(assert (= |goto_symex::guard?0!0&0#43| #b1))

(assert (= |goto_symex::guard?0!0&0#42| #b1))

(assert (= |goto_symex::guard?0!0&0#41| #b1))

(assert (= |goto_symex::guard?0!0&0#40| #b1))

(assert (= |goto_symex::guard?0!0&0#39| #b1))

(assert (= |goto_symex::guard?0!0&0#38| #b1))

(assert (= |goto_symex::guard?0!0&0#37| #b1))

(assert (= |goto_symex::guard?0!0&0#36| #b1))

(assert (= |goto_symex::guard?0!0&0#35| #b1))

(assert (= |goto_symex::guard?0!0&0#34| #b1))

(assert (= |goto_symex::guard?0!0&0#33| #b1))

(assert (= |goto_symex::guard?0!0&0#32| #b1))

(assert (= |goto_symex::guard?0!0&0#31| #b1))

(assert (= |goto_symex::guard?0!0&0#30| #b1))

(assert (= |goto_symex::guard?0!0&0#29| #b1))

(assert (= |goto_symex::guard?0!0&0#28| #b1))

(assert (= |goto_symex::guard?0!0&0#27| #b1))

(assert (= |goto_symex::guard?0!0&0#26| #b1))

(assert (= |goto_symex::guard?0!0&0#25| #b1))

(assert (= |goto_symex::guard?0!0&0#24| #b1))

(assert (= |goto_symex::guard?0!0&0#23| #b1))

(assert (= |goto_symex::guard?0!0&0#22| #b1))

(assert (= |goto_symex::guard?0!0&0#21| #b1))

(assert (= |goto_symex::guard?0!0&0#20| #b1))

(assert (= |goto_symex::guard?0!0&0#19| #b1))

(assert (= |goto_symex::guard?0!0&0#18| #b1))

(assert (= |goto_symex::guard?0!0&0#17| #b1))

(assert (= |goto_symex::guard?0!0&0#16| #b1))

(assert (= |goto_symex::guard?0!0&0#15| #b1))

(assert (= |goto_symex::guard?0!0&0#14| #b1))

(assert (= |goto_symex::guard?0!0&0#13| #b1))

(assert (= |goto_symex::guard?0!0&0#12| #b1))

(assert (= |goto_symex::guard?0!0&0#11| #b1))

(assert (= |goto_symex::guard?0!0&0#10| #b1))

(assert (= |goto_symex::guard?0!0&0#9| #b1))

(assert (= |goto_symex::guard?0!0&0#8| #b1))

(assert (= |goto_symex::guard?0!0&0#7| #b1))

(assert (= |goto_symex::guard?0!0&0#6| #b1))

(assert (= |goto_symex::guard?0!0&0#5| #b1))

(assert (= |goto_symex::guard?0!0&0#4| #b1))

(assert (= |goto_symex::guard?0!0&0#3| #b1))

(assert (= |goto_symex::guard?0!0&0#2| #b1))

(assert (= |goto_symex::guard?0!0&0#1| #b1))

(check-sat)

(exit)
